Route #1: 1 42 32 34 23 13 39 10 24 5 36 1
Route #2: 1 19 15 43 11 4 17 28 44 25 31 8 48 1
Route #3: 1 41 16 35 50 7 49 18 45 1
Route #4: 1 26 29 33 3 20 1
Route #5: 1 22 46 37 6 9 38 21 12 1
Route #6: 1 30 14 27 40 1
Route #7: 1 2 47 1
cost 857
